// Objective Function

max : 14000 a1 + 3500 a2;

// Constraints

14000 a1 + 3500 a2 - 150 b1 - 0.2 b2 <= 0;
14000 a1 + 21000 a2 - 400 b1 - 0.7 b2 <= 0;
42000 a1 + 10500 a2 - 320 b1 - 1.2 b2 <= 0;
28000 a1 + 43000 a2 - 520 b1 - 2.0 b2 <= 0;
19000 a1 + 25000 a2 - 350 b1 - 1.2 b2 <= 0;
14000 a1 + 15000 a2 - 320 b1 - 0.7 b2 <= 0;
 
 + 150 b1 + 0.2 b2 =1;
 